100 8
610 661
557 439
701 652
411 442
470 541
449 543
397 747
577 506
800 758
756 120
532 658
84 575
498 808
656 135
185 448
590 426
645 614
615 103
693 143
730 152
406 447
598 497
310 843
455 649
495 880
597 867
708 516
432 423
497 535
586 534
751 711
467 505
815 897
109 446
576 527
801 950
623 177
505 793
541 823
181 203
610 852
157 485
782 193
654 146
804 918
122 485
209 500
609 419
458 594
345 859
619 153
187 486
461 780
758 239
592 703
555 755
946 169
535 403
618 421
678 531
590 590
821 939
476 615
113 568
576 510
434 579
698 644
665 241
561 424
478 535
546 186
310 419
567 851
422 605
479 557
603 815
889 264
547 789
651 235
912 94
437 415
86 203
202 499
675 277
608 691
816 851
683 756
643 494
967 208
489 79
402 483
404 818
258 516
898 213
210 484
431 501
690 145
406 900
543 585
702 548
